NAME: A-n5-f2
COMMENT : -
TYPE : GVRP
DIMENSION : 6
EDGE_WEIGHT_TYPE : EUC_2D
CAPACITY : 100
AUTONOMY : 392
TIME LIMIT : 11
SPEED : 40.0
FUEL CONSUMPTION : 1.0
DEPOT_COORD_SECTION
0 82 76
CUSTOMER_COORD_SECTION
1 49 8 19 0.09981020571828414
2 5 10 21 0.9601523867517759
3 85 60 6 0.27007150128537805
4 98 5 19 0.2217243221252947
AFS_COORD_SECTION
5 85 52 0.24618257964932366
6 60 20 0.3753033632150219
EOF